Problem:    Asignacion
Rows:       242
Columns:    76 (76 integer, 76 binary)
Non-zeros:  332
Status:     INTEGER OPTIMAL
Objective:  0 (MINimum)

   No.   Row name        Activity     Lower bound   Upper bound
------ ------------    ------------- ------------- -------------
     1 res1[1]                     1             1             = 
     2 res1[2]                     1             1             = 
     3 res1[3]                     1             1             = 
     4 res1[4]                     1             1             = 
     5 res1[5]                     1             1             = 
     6 res1[6]                     1             1             = 
     7 res1[7]                     1             1             = 
     8 res1[8]                     1             1             = 
     9 res1[9]                     1             1             = 
    10 res1[10]                    1             1             = 
    11 res1[11]                    1             1             = 
    12 res1[12]                    1             1             = 
    13 res1[13]                    1             1             = 
    14 res1[14]                    1             1             = 
    15 res1[15]                    1             1             = 
    16 res1[16]                    1             1             = 
    17 res1[17]                    1             1             = 
    18 res1[18]                    1             1             = 
    19 res2[1]                   2.4                         2.5 
    20 res2[2]                   2.1                         2.5 
    21 res2[3]                     0                         2.5 
    22 res2[4]                   2.2                         2.5 
    23 res3[1,1]                   0                          -0 
    24 res3[1,2]                   0                          -0 
    25 res3[1,3]                   0                          -0 
    26 res3[1,4]                  -1                          -0 
    27 res3[2,1]                   0                          -0 
    28 res3[2,2]                   0                          -0 
    29 res3[2,3]                   0                          -0 
    30 res3[2,4]                  -1                          -0 
    31 res3[3,1]                   0                          -0 
    32 res3[3,2]                   0                          -0 
    33 res3[3,3]                   0                          -0 
    34 res3[3,4]                  -1                          -0 
    35 res3[4,1]                   0                          -0 
    36 res3[4,2]                   0                          -0 
    37 res3[4,3]                   0                          -0 
    38 res3[4,4]                  -1                          -0 
    39 res3[5,1]                   0                          -0 
    40 res3[5,2]                   0                          -0 
    41 res3[5,3]                   0                          -0 
    42 res3[5,4]                  -1                          -0 
    43 res3[6,1]                   0                          -0 
    44 res3[6,2]                   0                          -0 
    45 res3[6,3]                   0                          -0 
    46 res3[6,4]                  -1                          -0 
    47 res3[7,1]                   0                          -0 
    48 res3[7,2]                   0                          -0 
    49 res3[7,3]                   0                          -0 
    50 res3[7,4]                  -1                          -0 
    51 res3[8,1]                   0                          -0 
    52 res3[8,2]                   0                          -0 
    53 res3[8,3]                   0                          -0 
    54 res3[8,4]                  -1                          -0 
    55 res3[9,1]                   0                          -0 
    56 res3[9,2]                   0                          -0 
    57 res3[9,3]                   0                          -0 
    58 res3[9,4]                  -1                          -0 
    59 res3[10,1]                  0                          -0 
    60 res3[10,2]                  0                          -0 
    61 res3[10,3]                  0                          -0 
    62 res3[10,4]                  0                          -0 
    63 res3[11,1]                  0                          -0 
    64 res3[11,2]                  0                          -0 
    65 res3[11,3]                  0                          -0 
    66 res3[11,4]                  0                          -0 
    67 res3[12,1]                  0                          -0 
    68 res3[12,2]                  0                          -0 
    69 res3[12,3]                  0                          -0 
    70 res3[12,4]                  0                          -0 
    71 res3[13,1]                  0                          -0 
    72 res3[13,2]                  0                          -0 
    73 res3[13,3]                  0                          -0 
    74 res3[13,4]                  0                          -0 
    75 res3[14,1]                  0                          -0 
    76 res3[14,2]                  0                          -0 
    77 res3[14,3]                  0                          -0 
    78 res3[14,4]                  0                          -0 
    79 res3[15,1]                  0                          -0 
    80 res3[15,2]                  0                          -0 
    81 res3[15,3]                  0                          -0 
    82 res3[15,4]                  0                          -0 
    83 res3[16,1]                  0                          -0 
    84 res3[16,2]                  0                          -0 
    85 res3[16,3]                  0                          -0 
    86 res3[16,4]                  0                          -0 
    87 res3[17,1]                  0                          -0 
    88 res3[17,2]                  0                          -0 
    89 res3[17,3]                  0                          -0 
    90 res3[17,4]                  0                          -0 
    91 res3[18,1]                  0                          -0 
    92 res3[18,2]                  0                          -0 
    93 res3[18,3]                  0                          -0 
    94 res3[18,4]                  0                          -0 
    95 res4[1]                     0                          -0 
    96 res4[2]                     0                          -0 
    97 res4[3]                     0                           1 
    98 res4[4]                     1                           1 
    99 res5[1,1]                   1                           1 
   100 res5[1,2]                   0                           1 
   101 res5[1,3]                   0                          -0 
   102 res5[1,4]                   0                          -0 
   103 res5[2,1]                   1                           1 
   104 res5[2,2]                   0                           1 
   105 res5[2,3]                   0                          -0 
   106 res5[2,4]                   0                          -0 
   107 res5[3,1]                   0                           1 
   108 res5[3,2]                   1                           1 
   109 res5[3,3]                   0                          -0 
   110 res5[3,4]                   0                          -0 
   111 res5[4,1]                   0                           1 
   112 res5[4,2]                   1                           1 
   113 res5[4,3]                   0                          -0 
   114 res5[4,4]                   0                          -0 
   115 res5[5,1]                   0                           1 
   116 res5[5,2]                   1                           1 
   117 res5[5,3]                   0                          -0 
   118 res5[5,4]                   0                          -0 
   119 res5[6,1]                   0                           1 
   120 res5[6,2]                   1                           1 
   121 res5[6,3]                   0                          -0 
   122 res5[6,4]                   0                          -0 
   123 res5[7,1]                   0                           1 
   124 res5[7,2]                   1                           1 
   125 res5[7,3]                   0                          -0 
   126 res5[7,4]                   0                          -0 
   127 res5[8,1]                   0                           1 
   128 res5[8,2]                   1                           1 
   129 res5[8,3]                   0                          -0 
   130 res5[8,4]                   0                          -0 
   131 res5[9,1]                   0                           1 
   132 res5[9,2]                   1                           1 
   133 res5[9,3]                   0                          -0 
   134 res5[9,4]                   0                          -0 
   135 res5[10,1]                  0                           1 
   136 res5[10,2]                  0                           1 
   137 res5[10,3]                  0                          -0 
   138 res5[10,4]                  0                          -0 
   139 res5[11,1]                  0                           1 
   140 res5[11,2]                  0                           1 
   141 res5[11,3]                  0                          -0 
   142 res5[11,4]                  0                          -0 
   143 res5[12,1]                  0                           1 
   144 res5[12,2]                  0                           1 
   145 res5[12,3]                  0                          -0 
   146 res5[12,4]                  0                          -0 
   147 res5[13,1]                  0                           1 
   148 res5[13,2]                  0                           1 
   149 res5[13,3]                  0                          -0 
   150 res5[13,4]                  0                          -0 
   151 res5[14,1]                  0                           1 
   152 res5[14,2]                  0                           1 
   153 res5[14,3]                  0                          -0 
   154 res5[14,4]                  0                          -0 
   155 res5[15,1]                  0                           1 
   156 res5[15,2]                  0                           1 
   157 res5[15,3]                  0                          -0 
   158 res5[15,4]                  0                          -0 
   159 res5[16,1]                  0                           1 
   160 res5[16,2]                  0                           1 
   161 res5[16,3]                  0                          -0 
   162 res5[16,4]                  0                          -0 
   163 res5[17,1]                  0                           1 
   164 res5[17,2]                  0                           1 
   165 res5[17,3]                  0                          -0 
   166 res5[17,4]                  0                          -0 
   167 res5[18,1]                  0                           1 
   168 res5[18,2]                  0                           1 
   169 res5[18,3]                  0                          -0 
   170 res5[18,4]                  0                          -0 
   171 res6[1,1]                   0                          -0 
   172 res6[1,2]                   0                          -0 
   173 res6[1,3]                   0                           1 
   174 res6[1,4]                   0                           1 
   175 res6[2,1]                   0                          -0 
   176 res6[2,2]                   0                          -0 
   177 res6[2,3]                   0                           1 
   178 res6[2,4]                   0                           1 
   179 res6[3,1]                   0                          -0 
   180 res6[3,2]                   0                          -0 
   181 res6[3,3]                   0                           1 
   182 res6[3,4]                   0                           1 
   183 res6[4,1]                   0                          -0 
   184 res6[4,2]                   0                          -0 
   185 res6[4,3]                   0                           1 
   186 res6[4,4]                   0                           1 
   187 res6[5,1]                   0                          -0 
   188 res6[5,2]                   0                          -0 
   189 res6[5,3]                   0                           1 
   190 res6[5,4]                   0                           1 
   191 res6[6,1]                   0                          -0 
   192 res6[6,2]                   0                          -0 
   193 res6[6,3]                   0                           1 
   194 res6[6,4]                   0                           1 
   195 res6[7,1]                   0                          -0 
   196 res6[7,2]                   0                          -0 
   197 res6[7,3]                   0                           1 
   198 res6[7,4]                   0                           1 
   199 res6[8,1]                   0                          -0 
   200 res6[8,2]                   0                          -0 
   201 res6[8,3]                   0                           1 
   202 res6[8,4]                   0                           1 
   203 res6[9,1]                   0                          -0 
   204 res6[9,2]                   0                          -0 
   205 res6[9,3]                   0                           1 
   206 res6[9,4]                   0                           1 
   207 res6[10,1]                  0                          -0 
   208 res6[10,2]                  0                          -0 
   209 res6[10,3]                  0                           1 
   210 res6[10,4]                  1                           1 
   211 res6[11,1]                  0                          -0 
   212 res6[11,2]                  0                          -0 
   213 res6[11,3]                  0                           1 
   214 res6[11,4]                  1                           1 
   215 res6[12,1]                  0                          -0 
   216 res6[12,2]                  0                          -0 
   217 res6[12,3]                  0                           1 
   218 res6[12,4]                  1                           1 
   219 res6[13,1]                  0                          -0 
   220 res6[13,2]                  0                          -0 
   221 res6[13,3]                  0                           1 
   222 res6[13,4]                  1                           1 
   223 res6[14,1]                  0                          -0 
   224 res6[14,2]                  0                          -0 
   225 res6[14,3]                  0                           1 
   226 res6[14,4]                  1                           1 
   227 res6[15,1]                  0                          -0 
   228 res6[15,2]                  0                          -0 
   229 res6[15,3]                  0                           1 
   230 res6[15,4]                  1                           1 
   231 res6[16,1]                  0                          -0 
   232 res6[16,2]                  0                          -0 
   233 res6[16,3]                  0                           1 
   234 res6[16,4]                  1                           1 
   235 res6[17,1]                  0                          -0 
   236 res6[17,2]                  0                          -0 
   237 res6[17,3]                  0                           1 
   238 res6[17,4]                  1                           1 
   239 res6[18,1]                  0                          -0 
   240 res6[18,2]                  0                          -0 
   241 res6[18,3]                  0                           1 
   242 res6[18,4]                  1                           1 

   No. Column name       Activity     Lower bound   Upper bound
------ ------------    ------------- ------------- -------------
     1 x[1,1]       *              1             0             1 
     2 x[1,2]       *              0             0             1 
     3 x[1,3]       *              0             0             1 
     4 x[1,4]       *              0             0             1 
     5 x[2,1]       *              1             0             1 
     6 x[2,2]       *              0             0             1 
     7 x[2,3]       *              0             0             1 
     8 x[2,4]       *              0             0             1 
     9 x[3,1]       *              0             0             1 
    10 x[3,2]       *              1             0             1 
    11 x[3,3]       *              0             0             1 
    12 x[3,4]       *              0             0             1 
    13 x[4,1]       *              0             0             1 
    14 x[4,2]       *              1             0             1 
    15 x[4,3]       *              0             0             1 
    16 x[4,4]       *              0             0             1 
    17 x[5,1]       *              0             0             1 
    18 x[5,2]       *              1             0             1 
    19 x[5,3]       *              0             0             1 
    20 x[5,4]       *              0             0             1 
    21 x[6,1]       *              0             0             1 
    22 x[6,2]       *              1             0             1 
    23 x[6,3]       *              0             0             1 
    24 x[6,4]       *              0             0             1 
    25 x[7,1]       *              0             0             1 
    26 x[7,2]       *              1             0             1 
    27 x[7,3]       *              0             0             1 
    28 x[7,4]       *              0             0             1 
    29 x[8,1]       *              0             0             1 
    30 x[8,2]       *              1             0             1 
    31 x[8,3]       *              0             0             1 
    32 x[8,4]       *              0             0             1 
    33 x[9,1]       *              0             0             1 
    34 x[9,2]       *              1             0             1 
    35 x[9,3]       *              0             0             1 
    36 x[9,4]       *              0             0             1 
    37 x[10,1]      *              0             0             1 
    38 x[10,2]      *              0             0             1 
    39 x[10,3]      *              0             0             1 
    40 x[10,4]      *              1             0             1 
    41 x[11,1]      *              0             0             1 
    42 x[11,2]      *              0             0             1 
    43 x[11,3]      *              0             0             1 
    44 x[11,4]      *              1             0             1 
    45 x[12,1]      *              0             0             1 
    46 x[12,2]      *              0             0             1 
    47 x[12,3]      *              0             0             1 
    48 x[12,4]      *              1             0             1 
    49 x[13,1]      *              0             0             1 
    50 x[13,2]      *              0             0             1 
    51 x[13,3]      *              0             0             1 
    52 x[13,4]      *              1             0             1 
    53 x[14,1]      *              0             0             1 
    54 x[14,2]      *              0             0             1 
    55 x[14,3]      *              0             0             1 
    56 x[14,4]      *              1             0             1 
    57 x[15,1]      *              0             0             1 
    58 x[15,2]      *              0             0             1 
    59 x[15,3]      *              0             0             1 
    60 x[15,4]      *              1             0             1 
    61 x[16,1]      *              0             0             1 
    62 x[16,2]      *              0             0             1 
    63 x[16,3]      *              0             0             1 
    64 x[16,4]      *              1             0             1 
    65 x[17,1]      *              0             0             1 
    66 x[17,2]      *              0             0             1 
    67 x[17,3]      *              0             0             1 
    68 x[17,4]      *              1             0             1 
    69 x[18,1]      *              0             0             1 
    70 x[18,2]      *              0             0             1 
    71 x[18,3]      *              0             0             1 
    72 x[18,4]      *              1             0             1 
    73 y[1]         *              0             0             1 
    74 y[2]         *              0             0             1 
    75 y[3]         *              0             0             1 
    76 y[4]         *              1             0             1 

Integer feasibility conditions:

KKT.PE: max.abs.err = 0.00e+00 on row 0
        max.rel.err = 0.00e+00 on row 0
        High quality

KKT.PB: max.abs.err = 0.00e+00 on row 0
        max.rel.err = 0.00e+00 on row 0
        High quality

End of output
